N = 646;
M = 1624;
Edge_Start = [1, 1, 2, 3, 3, 4, 5, 6, 7, 7, 8, 9, 9, 10, 11, 11, 12, 13, 13, 15, 16, 17, 18, 19, 19, 20, 21, 22, 23, 23, 24, 25, 25, 26, 27, 28, 29, 30, 31, 32, 33, 33, 34, 35, 36, 37, 37, 38, 39, 39, 41, 41, 42, 43, 43, 44, 45, 45, 46, 47, 47, 48, 49, 49, 50, 51, 51, 52, 53, 53, 54, 55, 55, 56, 57, 58, 59, 60, 61, 62, 63, 63, 64, 65, 65, 66, 67, 67, 68, 69, 69, 70, 71, 72, 72, 73, 75, 76, 77, 78, 78, 79, 80, 81, 82, 83, 84, 85, 86, 86, 87, 88, 88, 89, 90, 91, 92, 92, 94, 94, 95, 96, 97, 98, 98, 100, 100, 101, 102, 102, 103, 104, 104, 106, 106, 108, 109, 109, 110, 111, 112, 113, 114, 115, 116, 117, 117, 118, 119, 120, 121, 121, 122, 123, 123, 124, 125, 126, 127, 127, 128, 129, 129, 130, 131, 131, 133, 133, 134, 135, 135, 136, 137, 137, 139, 139, 140, 141, 141, 142, 144, 144, 145, 146, 147, 148, 148, 149, 150, 150, 152, 152, 153, 154, 154, 155, 156, 157, 158, 158, 159, 160, 160, 161, 162, 162, 163, 164, 164, 165, 166, 167, 168, 168, 169, 170, 170, 171, 172, 173, 174, 175, 176, 176, 177, 178, 178, 180, 181, 181, 182, 183, 183, 185, 185, 186, 187, 187, 188, 189, 189, 190, 191, 191, 192, 194, 195, 195, 196, 197, 197, 198, 199, 199, 200, 201, 201, 202, 203, 203, 204, 205, 205, 206, 207, 207, 208, 209, 209, 210, 211, 212, 213, 213, 214, 215, 216, 216, 218, 218, 219, 220, 220, 221, 222, 222, 223, 224, 225, 226, 226, 227, 228, 228, 229, 230, 230, 231, 232, 234, 234, 235, 236, 236, 238, 238, 239, 240, 240, 241, 242, 242, 243, 244, 246, 246, 247, 248, 248, 249, 250, 250, 252, 253, 253, 254, 255, 255, 256, 257, 258, 259, 259, 260, 261, 261, 262, 263, 263, 264, 265, 265, 266, 267, 267, 268, 269, 270, 271, 271, 272, 273, 273, 274, 275, 275, 276, 277, 278, 279, 279, 280, 281, 282, 283, 283, 284, 285, 285, 286, 287, 288, 288, 289, 290, 290, 291, 292, 292, 293, 294, 295, 296, 297, 298, 298, 299, 300, 300, 301, 302, 302, 303, 304, 304, 305, 306, 307, 308, 308, 309, 310, 310, 311, 312, 312, 313, 314, 314, 316, 316, 317, 318, 319, 320, 321, 322, 322, 324, 325, 325, 326, 327, 328, 329, 329, 331, 331, 332, 333, 333, 334, 335, 335, 336, 337, 337, 338, 339, 339, 341, 341, 342, 343, 344, 345, 345, 346, 347, 347, 348, 349, 350, 351, 351, 352, 353, 353, 354, 356, 357, 357, 358, 359, 360, 360, 362, 362, 363, 364, 365, 366, 367, 368, 368, 369, 370, 370, 372, 372, 373, 374, 375, 376, 376, 377, 378, 378, 379, 380, 380, 381, 382, 382, 383, 384, 385, 387, 388, 388, 389, 390, 390, 391, 393, 394, 394, 397, 397, 398, 399, 399, 400, 401, 402, 403, 403, 404, 405, 405, 406, 407, 407, 408, 409, 409, 410, 411, 412, 413, 413, 414, 415, 415, 416, 417, 418, 419, 421, 422, 423, 423, 424, 425, 425, 426, 427, 428, 429, 429, 431, 432, 432, 433, 434, 434, 435, 436, 437, 438, 438, 439, 440, 441, 442, 443, 444, 444, 445, 446, 447, 448, 448, 449, 450, 450, 452, 452, 453, 454, 455, 456, 457, 458, 458, 459, 460, 461, 462, 462, 463, 464, 464, 465, 466, 466, 469, 469, 470, 471, 471, 472, 473, 473, 474, 475, 476, 477, 477, 478, 479, 479, 480, 481, 483, 483, 484, 485, 485, 486, 487, 488, 489, 489, 490, 491, 491, 493, 493, 494, 495, 496, 497, 497, 498, 499, 499, 500, 501, 501, 502, 503, 504, 505, 506, 506, 507, 508, 508, 509, 510, 510, 511, 512, 513, 514, 515, 516, 516, 517, 518, 518, 519, 520, 521, 522, 523, 524, 524, 525, 526, 526, 527, 528, 528, 529, 530, 531, 532, 532, 534, 535, 536, 538, 538, 540, 541, 541, 542, 543, 543, 544, 545, 545, 546, 547, 547, 549, 551, 551, 553, 553, 554, 555, 555, 556, 557, 557, 559, 559, 560, 561, 561, 562, 563, 563, 564, 565, 565, 566, 567, 567, 568, 569, 569, 570, 571, 572, 573, 573, 574, 575, 576, 576, 577, 578, 579, 580, 580, 581, 582, 582, 583, 584, 584, 585, 586, 586, 587, 588, 588, 589, 590, 591, 592, 592, 593, 594, 594, 595, 596, 596, 597, 598, 598, 599, 600, 600, 602, 603, 604, 604, 605, 606, 606, 607, 608, 608, 609, 610, 610, 612, 613, 614, 615, 616, 617, 618, 619, 620, 621, 622, 623, 624, 626, 627, 628, 629, 630, 631, 632, 633, 634, 635, 637, 638, 639, 640, 641, 642, 643, 644, 2, 36, 3, 4, 38, 5, 40, 7, 8, 42, 9, 10, 44, 11, 12, 46, 13, 14, 48, 16, 17, 52, 19, 20, 54, 21, 56, 23, 24, 58, 25, 26, 60, 27, 28, 29, 30, 31, 66, 33, 34, 68, 35, 70, 37, 38, 73, 39, 40, 75, 42, 77, 43, 44, 79, 45, 46, 81, 47, 48, 83, 49, 50, 85, 51, 52, 87, 53, 54, 89, 55, 56, 91, 57, 58, 59, 60, 61, 62, 63, 64, 99, 65, 66, 101, 67, 68, 103, 69, 70, 105, 71, 107, 73, 108, 74, 76, 112, 78, 79, 114, 80, 116, 82, 83, 84, 120, 86, 87, 122, 88, 89, 124, 90, 126, 92, 93, 128, 95, 130, 96, 97, 98, 99, 134, 101, 136, 102, 103, 138, 104, 105, 140, 107, 142, 109, 110, 145, 111, 112, 113, 149, 115, 116, 117, 118, 153, 119, 120, 121, 122, 157, 123, 124, 159, 125, 126, 127, 128, 163, 129, 130, 165, 131, 132, 167, 134, 169, 135, 136, 171, 137, 138, 173, 140, 175, 141, 142, 177, 143, 145, 180, 146, 147, 148, 149, 184, 150, 151, 186, 153, 188, 154, 155, 190, 156, 192, 158, 159, 194, 160, 161, 196, 162, 163, 198, 164, 165, 200, 166, 202, 168, 169, 204, 170, 171, 206, 172, 173, 174, 175, 176, 177, 212, 178, 179, 214, 181, 182, 217, 183, 184, 219, 186, 221, 187, 188, 223, 189, 190, 225, 191, 192, 227, 193, 195, 196, 231, 197, 198, 233, 199, 200, 235, 201, 202, 237, 203, 204, 239, 205, 206, 241, 207, 208, 243, 209, 210, 245, 211, 247, 213, 214, 249, 215, 251, 217, 252, 219, 254, 220, 221, 256, 222, 223, 258, 224, 225, 226, 227, 262, 228, 229, 264, 230, 231, 266, 232, 233, 235, 270, 236, 237, 272, 239, 274, 240, 241, 276, 242, 243, 278, 244, 280, 247, 282, 248, 249, 284, 250, 251, 286, 253, 254, 289, 255, 256, 291, 257, 293, 259, 260, 295, 261, 262, 297, 263, 264, 299, 265, 266, 301, 267, 268, 303, 269, 305, 271, 272, 307, 273, 274, 309, 275, 276, 311, 277, 278, 279, 280, 315, 281, 282, 283, 284, 319, 285, 286, 321, 287, 323, 289, 324, 290, 291, 326, 292, 293, 328, 294, 330, 296, 332, 298, 299, 334, 300, 301, 336, 302, 303, 338, 304, 305, 340, 306, 307, 308, 309, 344, 310, 311, 346, 312, 313, 348, 314, 315, 350, 317, 352, 318, 354, 320, 356, 322, 323, 358, 325, 326, 361, 327, 328, 329, 330, 365, 332, 367, 333, 334, 369, 335, 336, 371, 337, 338, 373, 339, 340, 375, 342, 377, 343, 344, 345, 346, 381, 347, 348, 383, 349, 350, 351, 352, 387, 353, 354, 389, 355, 357, 358, 393, 359, 395, 361, 396, 363, 398, 364, 365, 366, 402, 368, 369, 404, 370, 371, 406, 373, 408, 374, 375, 376, 377, 412, 378, 379, 414, 380, 381, 416, 382, 383, 418, 384, 385, 386, 388, 389, 424, 390, 391, 426, 392, 394, 395, 430, 398, 433, 399, 400, 435, 401, 402, 403, 404, 439, 405, 406, 441, 407, 408, 443, 409, 410, 445, 411, 412, 413, 414, 449, 415, 416, 451, 417, 418, 419, 420, 422, 423, 424, 459, 425, 426, 461, 427, 428, 429, 430, 465, 467, 433, 468, 434, 435, 470, 436, 437, 438, 439, 474, 440, 476, 442, 443, 444, 445, 480, 446, 447, 448, 449, 484, 450, 451, 486, 453, 488, 454, 455, 456, 492, 458, 459, 494, 460, 496, 462, 463, 498, 464, 465, 500, 466, 467, 502, 470, 505, 471, 472, 507, 473, 474, 509, 475, 476, 477, 478, 513, 479, 480, 515, 481, 482, 484, 519, 485, 486, 521, 487, 488, 489, 490, 525, 491, 492, 527, 494, 529, 495, 496, 497, 498, 533, 499, 500, 535, 501, 502, 537, 503, 539, 505, 506, 507, 542, 508, 509, 544, 510, 511, 546, 512, 548, 514, 550, 516, 517, 552, 518, 519, 554, 520, 521, 522, 523, 524, 525, 560, 526, 527, 562, 528, 529, 564, 530, 566, 532, 533, 568, 535, 536, 537, 539, 574, 541, 542, 577, 543, 544, 579, 545, 546, 581, 547, 548, 583, 550, 552, 587, 554, 589, 555, 556, 591, 557, 558, 593, 560, 595, 561, 562, 597, 563, 564, 599, 565, 566, 601, 567, 568, 603, 569, 570, 605, 571, 607, 573, 574, 609, 575, 611, 577, 612, 578, 579, 580, 581, 616, 582, 583, 618, 584, 585, 620, 586, 587, 622, 588, 589, 624, 590, 591, 592, 593, 628, 594, 595, 630, 596, 597, 632, 598, 599, 634, 600, 601, 636, 638, 604, 605, 640, 606, 607, 642, 608, 609, 644, 610, 611, 646, 613, 614, 615, 616, 617, 618, 619, 620, 621, 622, 623, 624, 625, 627, 628, 629, 630, 631, 632, 633, 634, 635, 636, 638, 639, 640, 641, 642, 643, 644, 645];
Edge_End = [2, 36, 3, 4, 38, 5, 40, 7, 8, 42, 9, 10, 44, 11, 12, 46, 13, 14, 48, 16, 17, 52, 19, 20, 54, 21, 56, 23, 24, 58, 25, 26, 60, 27, 28, 29, 30, 31, 66, 33, 34, 68, 35, 70, 37, 38, 73, 39, 40, 75, 42, 77, 43, 44, 79, 45, 46, 81, 47, 48, 83, 49, 50, 85, 51, 52, 87, 53, 54, 89, 55, 56, 91, 57, 58, 59, 60, 61, 62, 63, 64, 99, 65, 66, 101, 67, 68, 103, 69, 70, 105, 71, 107, 73, 108, 74, 76, 112, 78, 79, 114, 80, 116, 82, 83, 84, 120, 86, 87, 122, 88, 89, 124, 90, 126, 92, 93, 128, 95, 130, 96, 97, 98, 99, 134, 101, 136, 102, 103, 138, 104, 105, 140, 107, 142, 109, 110, 145, 111, 112, 113, 149, 115, 116, 117, 118, 153, 119, 120, 121, 122, 157, 123, 124, 159, 125, 126, 127, 128, 163, 129, 130, 165, 131, 132, 167, 134, 169, 135, 136, 171, 137, 138, 173, 140, 175, 141, 142, 177, 143, 145, 180, 146, 147, 148, 149, 184, 150, 151, 186, 153, 188, 154, 155, 190, 156, 192, 158, 159, 194, 160, 161, 196, 162, 163, 198, 164, 165, 200, 166, 202, 168, 169, 204, 170, 171, 206, 172, 173, 174, 175, 176, 177, 212, 178, 179, 214, 181, 182, 217, 183, 184, 219, 186, 221, 187, 188, 223, 189, 190, 225, 191, 192, 227, 193, 195, 196, 231, 197, 198, 233, 199, 200, 235, 201, 202, 237, 203, 204, 239, 205, 206, 241, 207, 208, 243, 209, 210, 245, 211, 247, 213, 214, 249, 215, 251, 217, 252, 219, 254, 220, 221, 256, 222, 223, 258, 224, 225, 226, 227, 262, 228, 229, 264, 230, 231, 266, 232, 233, 235, 270, 236, 237, 272, 239, 274, 240, 241, 276, 242, 243, 278, 244, 280, 247, 282, 248, 249, 284, 250, 251, 286, 253, 254, 289, 255, 256, 291, 257, 293, 259, 260, 295, 261, 262, 297, 263, 264, 299, 265, 266, 301, 267, 268, 303, 269, 305, 271, 272, 307, 273, 274, 309, 275, 276, 311, 277, 278, 279, 280, 315, 281, 282, 283, 284, 319, 285, 286, 321, 287, 323, 289, 324, 290, 291, 326, 292, 293, 328, 294, 330, 296, 332, 298, 299, 334, 300, 301, 336, 302, 303, 338, 304, 305, 340, 306, 307, 308, 309, 344, 310, 311, 346, 312, 313, 348, 314, 315, 350, 317, 352, 318, 354, 320, 356, 322, 323, 358, 325, 326, 361, 327, 328, 329, 330, 365, 332, 367, 333, 334, 369, 335, 336, 371, 337, 338, 373, 339, 340, 375, 342, 377, 343, 344, 345, 346, 381, 347, 348, 383, 349, 350, 351, 352, 387, 353, 354, 389, 355, 357, 358, 393, 359, 395, 361, 396, 363, 398, 364, 365, 366, 402, 368, 369, 404, 370, 371, 406, 373, 408, 374, 375, 376, 377, 412, 378, 379, 414, 380, 381, 416, 382, 383, 418, 384, 385, 386, 388, 389, 424, 390, 391, 426, 392, 394, 395, 430, 398, 433, 399, 400, 435, 401, 402, 403, 404, 439, 405, 406, 441, 407, 408, 443, 409, 410, 445, 411, 412, 413, 414, 449, 415, 416, 451, 417, 418, 419, 420, 422, 423, 424, 459, 425, 426, 461, 427, 428, 429, 430, 465, 467, 433, 468, 434, 435, 470, 436, 437, 438, 439, 474, 440, 476, 442, 443, 444, 445, 480, 446, 447, 448, 449, 484, 450, 451, 486, 453, 488, 454, 455, 456, 492, 458, 459, 494, 460, 496, 462, 463, 498, 464, 465, 500, 466, 467, 502, 470, 505, 471, 472, 507, 473, 474, 509, 475, 476, 477, 478, 513, 479, 480, 515, 481, 482, 484, 519, 485, 486, 521, 487, 488, 489, 490, 525, 491, 492, 527, 494, 529, 495, 496, 497, 498, 533, 499, 500, 535, 501, 502, 537, 503, 539, 505, 506, 507, 542, 508, 509, 544, 510, 511, 546, 512, 548, 514, 550, 516, 517, 552, 518, 519, 554, 520, 521, 522, 523, 524, 525, 560, 526, 527, 562, 528, 529, 564, 530, 566, 532, 533, 568, 535, 536, 537, 539, 574, 541, 542, 577, 543, 544, 579, 545, 546, 581, 547, 548, 583, 550, 552, 587, 554, 589, 555, 556, 591, 557, 558, 593, 560, 595, 561, 562, 597, 563, 564, 599, 565, 566, 601, 567, 568, 603, 569, 570, 605, 571, 607, 573, 574, 609, 575, 611, 577, 612, 578, 579, 580, 581, 616, 582, 583, 618, 584, 585, 620, 586, 587, 622, 588, 589, 624, 590, 591, 592, 593, 628, 594, 595, 630, 596, 597, 632, 598, 599, 634, 600, 601, 636, 638, 604, 605, 640, 606, 607, 642, 608, 609, 644, 610, 611, 646, 613, 614, 615, 616, 617, 618, 619, 620, 621, 622, 623, 624, 625, 627, 628, 629, 630, 631, 632, 633, 634, 635, 636, 638, 639, 640, 641, 642, 643, 644, 645, 1, 1, 2, 3, 3, 4, 5, 6, 7, 7, 8, 9, 9, 10, 11, 11, 12, 13, 13, 15, 16, 17, 18, 19, 19, 20, 21, 22, 23, 23, 24, 25, 25, 26, 27, 28, 29, 30, 31, 32, 33, 33, 34, 35, 36, 37, 37, 38, 39, 39, 41, 41, 42, 43, 43, 44, 45, 45, 46, 47, 47, 48, 49, 49, 50, 51, 51, 52, 53, 53, 54, 55, 55, 56, 57, 58, 59, 60, 61, 62, 63, 63, 64, 65, 65, 66, 67, 67, 68, 69, 69, 70, 71, 72, 72, 73, 75, 76, 77, 78, 78, 79, 80, 81, 82, 83, 84, 85, 86, 86, 87, 88, 88, 89, 90, 91, 92, 92, 94, 94, 95, 96, 97, 98, 98, 100, 100, 101, 102, 102, 103, 104, 104, 106, 106, 108, 109, 109, 110, 111, 112, 113, 114, 115, 116, 117, 117, 118, 119, 120, 121, 121, 122, 123, 123, 124, 125, 126, 127, 127, 128, 129, 129, 130, 131, 131, 133, 133, 134, 135, 135, 136, 137, 137, 139, 139, 140, 141, 141, 142, 144, 144, 145, 146, 147, 148, 148, 149, 150, 150, 152, 152, 153, 154, 154, 155, 156, 157, 158, 158, 159, 160, 160, 161, 162, 162, 163, 164, 164, 165, 166, 167, 168, 168, 169, 170, 170, 171, 172, 173, 174, 175, 176, 176, 177, 178, 178, 180, 181, 181, 182, 183, 183, 185, 185, 186, 187, 187, 188, 189, 189, 190, 191, 191, 192, 194, 195, 195, 196, 197, 197, 198, 199, 199, 200, 201, 201, 202, 203, 203, 204, 205, 205, 206, 207, 207, 208, 209, 209, 210, 211, 212, 213, 213, 214, 215, 216, 216, 218, 218, 219, 220, 220, 221, 222, 222, 223, 224, 225, 226, 226, 227, 228, 228, 229, 230, 230, 231, 232, 234, 234, 235, 236, 236, 238, 238, 239, 240, 240, 241, 242, 242, 243, 244, 246, 246, 247, 248, 248, 249, 250, 250, 252, 253, 253, 254, 255, 255, 256, 257, 258, 259, 259, 260, 261, 261, 262, 263, 263, 264, 265, 265, 266, 267, 267, 268, 269, 270, 271, 271, 272, 273, 273, 274, 275, 275, 276, 277, 278, 279, 279, 280, 281, 282, 283, 283, 284, 285, 285, 286, 287, 288, 288, 289, 290, 290, 291, 292, 292, 293, 294, 295, 296, 297, 298, 298, 299, 300, 300, 301, 302, 302, 303, 304, 304, 305, 306, 307, 308, 308, 309, 310, 310, 311, 312, 312, 313, 314, 314, 316, 316, 317, 318, 319, 320, 321, 322, 322, 324, 325, 325, 326, 327, 328, 329, 329, 331, 331, 332, 333, 333, 334, 335, 335, 336, 337, 337, 338, 339, 339, 341, 341, 342, 343, 344, 345, 345, 346, 347, 347, 348, 349, 350, 351, 351, 352, 353, 353, 354, 356, 357, 357, 358, 359, 360, 360, 362, 362, 363, 364, 365, 366, 367, 368, 368, 369, 370, 370, 372, 372, 373, 374, 375, 376, 376, 377, 378, 378, 379, 380, 380, 381, 382, 382, 383, 384, 385, 387, 388, 388, 389, 390, 390, 391, 393, 394, 394, 397, 397, 398, 399, 399, 400, 401, 402, 403, 403, 404, 405, 405, 406, 407, 407, 408, 409, 409, 410, 411, 412, 413, 413, 414, 415, 415, 416, 417, 418, 419, 421, 422, 423, 423, 424, 425, 425, 426, 427, 428, 429, 429, 431, 432, 432, 433, 434, 434, 435, 436, 437, 438, 438, 439, 440, 441, 442, 443, 444, 444, 445, 446, 447, 448, 448, 449, 450, 450, 452, 452, 453, 454, 455, 456, 457, 458, 458, 459, 460, 461, 462, 462, 463, 464, 464, 465, 466, 466, 469, 469, 470, 471, 471, 472, 473, 473, 474, 475, 476, 477, 477, 478, 479, 479, 480, 481, 483, 483, 484, 485, 485, 486, 487, 488, 489, 489, 490, 491, 491, 493, 493, 494, 495, 496, 497, 497, 498, 499, 499, 500, 501, 501, 502, 503, 504, 505, 506, 506, 507, 508, 508, 509, 510, 510, 511, 512, 513, 514, 515, 516, 516, 517, 518, 518, 519, 520, 521, 522, 523, 524, 524, 525, 526, 526, 527, 528, 528, 529, 530, 531, 532, 532, 534, 535, 536, 538, 538, 540, 541, 541, 542, 543, 543, 544, 545, 545, 546, 547, 547, 549, 551, 551, 553, 553, 554, 555, 555, 556, 557, 557, 559, 559, 560, 561, 561, 562, 563, 563, 564, 565, 565, 566, 567, 567, 568, 569, 569, 570, 571, 572, 573, 573, 574, 575, 576, 576, 577, 578, 579, 580, 580, 581, 582, 582, 583, 584, 584, 585, 586, 586, 587, 588, 588, 589, 590, 591, 592, 592, 593, 594, 594, 595, 596, 596, 597, 598, 598, 599, 600, 600, 602, 603, 604, 604, 605, 606, 606, 607, 608, 608, 609, 610, 610, 612, 613, 614, 615, 616, 617, 618, 619, 620, 621, 622, 623, 624, 626, 627, 628, 629, 630, 631, 632, 633, 634, 635, 637, 638, 639, 640, 641, 642, 643, 644];
L = [10, 9, 16, 2, 12, 9, 1, 17, 14, 16, 16, 3, 10, 15, 4, 1, 16, 14, 12, 9, 15, 8, 4, 14, 12, 13, 14, 16, 5, 8, 5, 11, 9, 2, 14, 16, 8, 8, 6, 11, 2, 12, 3, 16, 7, 9, 11, 9, 3, 13, 7, 2, 3, 11, 5, 17, 5, 9, 4, 11, 15, 11, 10, 15, 15, 10, 13, 3, 8, 15, 3, 3, 4, 15, 5, 11, 2, 17, 9, 1, 6, 12, 6, 11, 5, 14, 9, 7, 1, 6, 7, 3, 7, 11, 3, 13, 9, 12, 15, 5, 19, 13, 4, 1, 8, 19, 13, 9, 11, 16, 18, 14, 3, 10, 19, 8, 17, 4, 15, 2, 1, 18, 10, 15, 12, 1, 13, 18, 19, 16, 17, 14, 4, 15, 6, 8, 8, 2, 2, 1, 8, 6, 12, 18, 9, 11, 15, 2, 19, 8, 9, 9, 18, 2, 10, 12, 16, 6, 13, 17, 3, 17, 13, 17, 7, 18, 15, 4, 2, 9, 16, 8, 6, 17, 5, 1, 2, 14, 15, 13, 1, 3, 18, 19, 7, 6, 2, 16, 11, 17, 10, 18, 1, 15, 5, 12, 4, 4, 13, 17, 18, 2, 13, 12, 8, 3, 8, 15, 17, 8, 19, 2, 13, 3, 1, 13, 15, 4, 2, 11, 17, 18, 11, 11, 12, 11, 11, 14, 7, 19, 16, 5, 11, 1, 11, 7, 8, 18, 18, 4, 5, 18, 16, 3, 8, 6, 10, 7, 9, 14, 10, 9, 2, 8, 15, 16, 15, 12, 5, 12, 1, 17, 10, 13, 8, 1, 17, 18, 19, 14, 19, 2, 16, 1, 6, 7, 10, 7, 10, 13, 12, 13, 1, 11, 6, 19, 14, 9, 18, 8, 13, 2, 6, 13, 9, 17, 12, 16, 4, 10, 13, 12, 3, 15, 18, 6, 10, 6, 8, 2, 1, 8, 18, 4, 16, 13, 11, 6, 6, 3, 11, 5, 8, 1, 15, 12, 10, 18, 14, 10, 7, 13, 18, 12, 7, 11, 2, 3, 8, 1, 14, 16, 1, 13, 5, 18, 4, 9, 3, 1, 16, 4, 18, 18, 1, 15, 8, 11, 13, 12, 18, 7, 18, 3, 9, 16, 6, 6, 18, 7, 16, 5, 11, 18, 14, 8, 4, 14, 19, 14, 1, 13, 14, 18, 1, 13, 1, 2, 8, 4, 11, 8, 17, 5, 13, 3, 16, 11, 4, 13, 16, 11, 6, 16, 13, 16, 9, 6, 7, 1, 18, 16, 18, 16, 13, 15, 10, 4, 13, 17, 13, 5, 8, 17, 17, 16, 3, 8, 8, 17, 4, 14, 1, 3, 1, 4, 3, 13, 13, 9, 8, 11, 14, 8, 14, 6, 9, 5, 4, 18, 14, 2, 8, 1, 1, 9, 4, 7, 9, 12, 17, 16, 6, 9, 3, 9, 2, 8, 15, 1, 15, 6, 7, 2, 13, 5, 16, 6, 10, 15, 8, 2, 19, 12, 3, 15, 1, 3, 16, 7, 4, 9, 18, 3, 17, 18, 15, 5, 1, 7, 12, 4, 2, 11, 18, 11, 6, 6, 7, 17, 17, 16, 3, 16, 7, 1, 7, 17, 9, 3, 19, 19, 15, 5, 5, 15, 9, 10, 17, 6, 17, 17, 1, 6, 5, 18, 10, 9, 18, 1, 2, 16, 18, 11, 17, 17, 16, 11, 2, 13, 9, 6, 7, 18, 18, 8, 4, 8, 9, 10, 3, 4, 5, 14, 4, 7, 17, 8, 3, 1, 17, 19, 12, 10, 16, 18, 2, 3, 1, 2, 1, 6, 6, 6, 18, 19, 6, 2, 6, 5, 3, 13, 16, 17, 6, 4, 1, 3, 6, 10, 18, 18, 12, 14, 3, 12, 15, 11, 7, 5, 5, 11, 13, 6, 4, 8, 5, 2, 3, 13, 8, 9, 8, 9, 15, 2, 19, 6, 13, 10, 19, 8, 7, 7, 11, 10, 10, 11, 9, 19, 2, 17, 4, 13, 2, 12, 5, 9, 16, 19, 9, 17, 4, 1, 6, 10, 15, 3, 13, 7, 3, 3, 17, 6, 10, 16, 1, 17, 16, 7, 11, 14, 6, 7, 19, 16, 2, 5, 9, 8, 1, 1, 5, 1, 12, 3, 3, 17, 16, 10, 10, 15, 1, 17, 3, 2, 11, 4, 1, 19, 1, 2, 1, 12, 7, 6, 4, 10, 9, 12, 13, 5, 8, 5, 18, 17, 1, 13, 12, 9, 7, 17, 1, 13, 17, 11, 15, 4, 2, 9, 1, 7, 18, 6, 10, 7, 16, 13, 6, 15, 1, 2, 2, 1, 17, 17, 16, 9, 4, 14, 11, 9, 4, 7, 12, 16, 17, 9, 6, 7, 18, 15, 11, 10, 15, 17, 7, 6, 15, 17, 17, 6, 9, 10, 9, 7, 8, 14, 19, 7, 7, 4, 12, 5, 12, 11, 15, 16, 6, 10, 11, 18, 16, 7, 1, 15, 16, 9, 6, 6, 17, 6, 9, 9, 2, 9, 9, 9, 2, 1, 11, 5, 10, 9, 16, 2, 12, 9, 1, 17, 14, 16, 16, 3, 10, 15, 4, 1, 16, 14, 12, 9, 15, 8, 4, 14, 12, 13, 14, 16, 5, 8, 5, 11, 9, 2, 14, 16, 8, 8, 6, 11, 2, 12, 3, 16, 7, 9, 11, 9, 3, 13, 7, 2, 3, 11, 5, 17, 5, 9, 4, 11, 15, 11, 10, 15, 15, 10, 13, 3, 8, 15, 3, 3, 4, 15, 5, 11, 2, 17, 9, 1, 6, 12, 6, 11, 5, 14, 9, 7, 1, 6, 7, 3, 7, 11, 3, 13, 9, 12, 15, 5, 19, 13, 4, 1, 8, 19, 13, 9, 11, 16, 18, 14, 3, 10, 19, 8, 17, 4, 15, 2, 1, 18, 10, 15, 12, 1, 13, 18, 19, 16, 17, 14, 4, 15, 6, 8, 8, 2, 2, 1, 8, 6, 12, 18, 9, 11, 15, 2, 19, 8, 9, 9, 18, 2, 10, 12, 16, 6, 13, 17, 3, 17, 13, 17, 7, 18, 15, 4, 2, 9, 16, 8, 6, 17, 5, 1, 2, 14, 15, 13, 1, 3, 18, 19, 7, 6, 2, 16, 11, 17, 10, 18, 1, 15, 5, 12, 4, 4, 13, 17, 18, 2, 13, 12, 8, 3, 8, 15, 17, 8, 19, 2, 13, 3, 1, 13, 15, 4, 2, 11, 17, 18, 11, 11, 12, 11, 11, 14, 7, 19, 16, 5, 11, 1, 11, 7, 8, 18, 18, 4, 5, 18, 16, 3, 8, 6, 10, 7, 9, 14, 10, 9, 2, 8, 15, 16, 15, 12, 5, 12, 1, 17, 10, 13, 8, 1, 17, 18, 19, 14, 19, 2, 16, 1, 6, 7, 10, 7, 10, 13, 12, 13, 1, 11, 6, 19, 14, 9, 18, 8, 13, 2, 6, 13, 9, 17, 12, 16, 4, 10, 13, 12, 3, 15, 18, 6, 10, 6, 8, 2, 1, 8, 18, 4, 16, 13, 11, 6, 6, 3, 11, 5, 8, 1, 15, 12, 10, 18, 14, 10, 7, 13, 18, 12, 7, 11, 2, 3, 8, 1, 14, 16, 1, 13, 5, 18, 4, 9, 3, 1, 16, 4, 18, 18, 1, 15, 8, 11, 13, 12, 18, 7, 18, 3, 9, 16, 6, 6, 18, 7, 16, 5, 11, 18, 14, 8, 4, 14, 19, 14, 1, 13, 14, 18, 1, 13, 1, 2, 8, 4, 11, 8, 17, 5, 13, 3, 16, 11, 4, 13, 16, 11, 6, 16, 13, 16, 9, 6, 7, 1, 18, 16, 18, 16, 13, 15, 10, 4, 13, 17, 13, 5, 8, 17, 17, 16, 3, 8, 8, 17, 4, 14, 1, 3, 1, 4, 3, 13, 13, 9, 8, 11, 14, 8, 14, 6, 9, 5, 4, 18, 14, 2, 8, 1, 1, 9, 4, 7, 9, 12, 17, 16, 6, 9, 3, 9, 2, 8, 15, 1, 15, 6, 7, 2, 13, 5, 16, 6, 10, 15, 8, 2, 19, 12, 3, 15, 1, 3, 16, 7, 4, 9, 18, 3, 17, 18, 15, 5, 1, 7, 12, 4, 2, 11, 18, 11, 6, 6, 7, 17, 17, 16, 3, 16, 7, 1, 7, 17, 9, 3, 19, 19, 15, 5, 5, 15, 9, 10, 17, 6, 17, 17, 1, 6, 5, 18, 10, 9, 18, 1, 2, 16, 18, 11, 17, 17, 16, 11, 2, 13, 9, 6, 7, 18, 18, 8, 4, 8, 9, 10, 3, 4, 5, 14, 4, 7, 17, 8, 3, 1, 17, 19, 12, 10, 16, 18, 2, 3, 1, 2, 1, 6, 6, 6, 18, 19, 6, 2, 6, 5, 3, 13, 16, 17, 6, 4, 1, 3, 6, 10, 18, 18, 12, 14, 3, 12, 15, 11, 7, 5, 5, 11, 13, 6, 4, 8, 5, 2, 3, 13, 8, 9, 8, 9, 15, 2, 19, 6, 13, 10, 19, 8, 7, 7, 11, 10, 10, 11, 9, 19, 2, 17, 4, 13, 2, 12, 5, 9, 16, 19, 9, 17, 4, 1, 6, 10, 15, 3, 13, 7, 3, 3, 17, 6, 10, 16, 1, 17, 16, 7, 11, 14, 6, 7, 19, 16, 2, 5, 9, 8, 1, 1, 5, 1, 12, 3, 3, 17, 16, 10, 10, 15, 1, 17, 3, 2, 11, 4, 1, 19, 1, 2, 1, 12, 7, 6, 4, 10, 9, 12, 13, 5, 8, 5, 18, 17, 1, 13, 12, 9, 7, 17, 1, 13, 17, 11, 15, 4, 2, 9, 1, 7, 18, 6, 10, 7, 16, 13, 6, 15, 1, 2, 2, 1, 17, 17, 16, 9, 4, 14, 11, 9, 4, 7, 12, 16, 17, 9, 6, 7, 18, 15, 11, 10, 15, 17, 7, 6, 15, 17, 17, 6, 9, 10, 9, 7, 8, 14, 19, 7, 7, 4, 12, 5, 12, 11, 15, 16, 6, 10, 11, 18, 16, 7, 1, 15, 16, 9, 6, 6, 17, 6, 9, 9, 2, 9, 9, 9, 2, 1, 11, 5];
T = [12, 3, 17, 5, 8, 4, 7, 8, 18, 16, 20, 1, 7, 13, 1, 4, 16, 17, 1, 10, 13, 13, 8, 24, 6, 9, 6, 16, 5, 3, 1, 12, 2, 1, 17, 15, 8, 6, 1, 7, 1, 9, 1, 17, 10, 14, 8, 7, 10, 18, 18, 1, 1, 15, 4, 18, 4, 12, 1, 12, 25, 8, 8, 22, 17, 15, 15, 1, 13, 10, 1, 1, 1, 11, 2, 10, 1, 12, 6, 5, 5, 6, 7, 14, 2, 15, 14, 5, 1, 7, 7, 1, 8, 15, 1, 25, 11, 11, 11, 5, 19, 15, 1, 1, 5, 23, 9, 11, 16, 22, 5, 10, 1, 14, 16, 3, 23, 1, 12, 4, 1, 11, 11, 7, 17, 1, 5, 17, 16, 11, 15, 21, 5, 13, 1, 15, 12, 11, 4, 1, 10, 13, 1, 17, 6, 12, 18, 5, 19, 6, 6, 8, 21, 1, 8, 1, 13, 8, 13, 18, 1, 20, 19, 14, 16, 8, 22, 9, 3, 8, 13, 13, 5, 14, 1, 1, 2, 18, 18, 13, 3, 1, 20, 15, 8, 6, 7, 14, 15, 27, 9, 18, 3, 16, 5, 5, 5, 7, 10, 16, 11, 7, 5, 4, 13, 1, 2, 25, 27, 14, 19, 1, 19, 11, 7, 18, 11, 8, 1, 13, 25, 20, 13, 11, 17, 22, 10, 11, 3, 12, 17, 5, 13, 5, 10, 10, 1, 11, 15, 3, 1, 10, 14, 5, 9, 6, 11, 5, 9, 7, 14, 5, 1, 7, 10, 17, 18, 17, 4, 17, 1, 15, 9, 18, 9, 1, 10, 15, 18, 16, 10, 7, 17, 9, 14, 1, 8, 8, 3, 16, 8, 20, 1, 14, 5, 16, 9, 11, 12, 3, 13, 1, 5, 16, 15, 19, 1, 16, 5, 22, 17, 14, 9, 9, 16, 6, 19, 11, 10, 6, 1, 10, 23, 1, 19, 11, 16, 5, 8, 8, 21, 1, 13, 1, 16, 4, 2, 21, 18, 9, 4, 12, 20, 15, 7, 16, 1, 8, 5, 1, 12, 16, 5, 18, 7, 25, 7, 8, 2, 1, 18, 13, 14, 24, 1, 13, 21, 21, 12, 7, 15, 11, 19, 9, 14, 14, 2, 2, 23, 1, 11, 1, 14, 14, 14, 8, 11, 20, 9, 16, 1, 12, 18, 15, 5, 12, 1, 4, 13, 3, 6, 10, 16, 3, 1, 8, 8, 9, 9, 7, 17, 11, 4, 18, 2, 19, 9, 1, 5, 1, 17, 14, 23, 19, 8, 21, 12, 5, 10, 16, 7, 1, 6, 17, 9, 12, 8, 15, 11, 23, 4, 8, 1, 5, 7, 1, 3, 8, 12, 18, 1, 13, 11, 5, 6, 3, 9, 3, 4, 20, 19, 4, 1, 1, 1, 10, 9, 2, 9, 13, 13, 13, 8, 8, 1, 11, 9, 3, 16, 1, 19, 1, 9, 1, 10, 14, 18, 3, 5, 9, 9, 3, 14, 10, 7, 17, 9, 2, 10, 12, 9, 5, 11, 2, 22, 17, 15, 9, 1, 3, 19, 1, 6, 11, 25, 6, 5, 8, 2, 16, 13, 16, 1, 9, 10, 1, 6, 12, 14, 2, 14, 23, 10, 11, 5, 6, 8, 4, 19, 3, 10, 17, 1, 7, 1, 26, 13, 9, 10, 5, 1, 13, 15, 7, 10, 4, 18, 13, 3, 11, 1, 5, 12, 10, 19, 12, 9, 2, 7, 5, 1, 1, 1, 7, 1, 1, 21, 3, 5, 1, 24, 21, 11, 4, 8, 10, 8, 6, 1, 1, 7, 1, 1, 6, 28, 22, 6, 6, 1, 1, 1, 12, 13, 13, 10, 1, 1, 6, 5, 20, 30, 12, 8, 2, 7, 8, 18, 19, 13, 1, 5, 4, 7, 1, 2, 1, 4, 6, 8, 6, 5, 8, 1, 11, 16, 5, 21, 2, 22, 11, 18, 2, 15, 5, 4, 1, 16, 10, 11, 23, 2, 19, 3, 16, 5, 21, 2, 14, 14, 12, 5, 26, 5, 1, 10, 8, 23, 5, 13, 1, 7, 6, 12, 12, 8, 2, 6, 13, 17, 4, 18, 11, 1, 6, 26, 10, 1, 8, 8, 11, 1, 1, 4, 8, 13, 5, 4, 11, 15, 10, 11, 13, 1, 13, 6, 1, 7, 1, 1, 18, 8, 1, 7, 11, 8, 4, 1, 15, 8, 17, 14, 1, 1, 1, 7, 8, 2, 12, 10, 11, 4, 17, 6, 21, 18, 19, 16, 1, 1, 15, 1, 11, 20, 9, 10, 12, 16, 19, 14, 12, 1, 1, 1, 3, 16, 19, 24, 7, 5, 9, 3, 2, 5, 1, 16, 11, 15, 14, 7, 6, 30, 15, 8, 10, 13, 14, 9, 1, 27, 14, 10, 10, 10, 11, 2, 4, 1, 13, 13, 10, 1, 1, 15, 3, 14, 7, 19, 21, 5, 6, 21, 19, 15, 13, 1, 16, 18, 1, 6, 7, 9, 17, 3, 5, 1, 6, 20, 13, 4, 10, 10, 17, 12, 3, 17, 5, 8, 4, 7, 8, 18, 16, 20, 1, 7, 13, 1, 4, 16, 17, 1, 10, 13, 13, 8, 24, 6, 9, 6, 16, 5, 3, 1, 12, 2, 1, 17, 15, 8, 6, 1, 7, 1, 9, 1, 17, 10, 14, 8, 7, 10, 18, 18, 1, 1, 15, 4, 18, 4, 12, 1, 12, 25, 8, 8, 22, 17, 15, 15, 1, 13, 10, 1, 1, 1, 11, 2, 10, 1, 12, 6, 5, 5, 6, 7, 14, 2, 15, 14, 5, 1, 7, 7, 1, 8, 15, 1, 25, 11, 11, 11, 5, 19, 15, 1, 1, 5, 23, 9, 11, 16, 22, 5, 10, 1, 14, 16, 3, 23, 1, 12, 4, 1, 11, 11, 7, 17, 1, 5, 17, 16, 11, 15, 21, 5, 13, 1, 15, 12, 11, 4, 1, 10, 13, 1, 17, 6, 12, 18, 5, 19, 6, 6, 8, 21, 1, 8, 1, 13, 8, 13, 18, 1, 20, 19, 14, 16, 8, 22, 9, 3, 8, 13, 13, 5, 14, 1, 1, 2, 18, 18, 13, 3, 1, 20, 15, 8, 6, 7, 14, 15, 27, 9, 18, 3, 16, 5, 5, 5, 7, 10, 16, 11, 7, 5, 4, 13, 1, 2, 25, 27, 14, 19, 1, 19, 11, 7, 18, 11, 8, 1, 13, 25, 20, 13, 11, 17, 22, 10, 11, 3, 12, 17, 5, 13, 5, 10, 10, 1, 11, 15, 3, 1, 10, 14, 5, 9, 6, 11, 5, 9, 7, 14, 5, 1, 7, 10, 17, 18, 17, 4, 17, 1, 15, 9, 18, 9, 1, 10, 15, 18, 16, 10, 7, 17, 9, 14, 1, 8, 8, 3, 16, 8, 20, 1, 14, 5, 16, 9, 11, 12, 3, 13, 1, 5, 16, 15, 19, 1, 16, 5, 22, 17, 14, 9, 9, 16, 6, 19, 11, 10, 6, 1, 10, 23, 1, 19, 11, 16, 5, 8, 8, 21, 1, 13, 1, 16, 4, 2, 21, 18, 9, 4, 12, 20, 15, 7, 16, 1, 8, 5, 1, 12, 16, 5, 18, 7, 25, 7, 8, 2, 1, 18, 13, 14, 24, 1, 13, 21, 21, 12, 7, 15, 11, 19, 9, 14, 14, 2, 2, 23, 1, 11, 1, 14, 14, 14, 8, 11, 20, 9, 16, 1, 12, 18, 15, 5, 12, 1, 4, 13, 3, 6, 10, 16, 3, 1, 8, 8, 9, 9, 7, 17, 11, 4, 18, 2, 19, 9, 1, 5, 1, 17, 14, 23, 19, 8, 21, 12, 5, 10, 16, 7, 1, 6, 17, 9, 12, 8, 15, 11, 23, 4, 8, 1, 5, 7, 1, 3, 8, 12, 18, 1, 13, 11, 5, 6, 3, 9, 3, 4, 20, 19, 4, 1, 1, 1, 10, 9, 2, 9, 13, 13, 13, 8, 8, 1, 11, 9, 3, 16, 1, 19, 1, 9, 1, 10, 14, 18, 3, 5, 9, 9, 3, 14, 10, 7, 17, 9, 2, 10, 12, 9, 5, 11, 2, 22, 17, 15, 9, 1, 3, 19, 1, 6, 11, 25, 6, 5, 8, 2, 16, 13, 16, 1, 9, 10, 1, 6, 12, 14, 2, 14, 23, 10, 11, 5, 6, 8, 4, 19, 3, 10, 17, 1, 7, 1, 26, 13, 9, 10, 5, 1, 13, 15, 7, 10, 4, 18, 13, 3, 11, 1, 5, 12, 10, 19, 12, 9, 2, 7, 5, 1, 1, 1, 7, 1, 1, 21, 3, 5, 1, 24, 21, 11, 4, 8, 10, 8, 6, 1, 1, 7, 1, 1, 6, 28, 22, 6, 6, 1, 1, 1, 12, 13, 13, 10, 1, 1, 6, 5, 20, 30, 12, 8, 2, 7, 8, 18, 19, 13, 1, 5, 4, 7, 1, 2, 1, 4, 6, 8, 6, 5, 8, 1, 11, 16, 5, 21, 2, 22, 11, 18, 2, 15, 5, 4, 1, 16, 10, 11, 23, 2, 19, 3, 16, 5, 21, 2, 14, 14, 12, 5, 26, 5, 1, 10, 8, 23, 5, 13, 1, 7, 6, 12, 12, 8, 2, 6, 13, 17, 4, 18, 11, 1, 6, 26, 10, 1, 8, 8, 11, 1, 1, 4, 8, 13, 5, 4, 11, 15, 10, 11, 13, 1, 13, 6, 1, 7, 1, 1, 18, 8, 1, 7, 11, 8, 4, 1, 15, 8, 17, 14, 1, 1, 1, 7, 8, 2, 12, 10, 11, 4, 17, 6, 21, 18, 19, 16, 1, 1, 15, 1, 11, 20, 9, 10, 12, 16, 19, 14, 12, 1, 1, 1, 3, 16, 19, 24, 7, 5, 9, 3, 2, 5, 1, 16, 11, 15, 14, 7, 6, 30, 15, 8, 10, 13, 14, 9, 1, 27, 14, 10, 10, 10, 11, 2, 4, 1, 13, 13, 10, 1, 1, 15, 3, 14, 7, 19, 21, 5, 6, 21, 19, 15, 13, 1, 16, 18, 1, 6, 7, 9, 17, 3, 5, 1, 6, 20, 13, 4, 10, 10, 17];
Lower_Bound = [0, 12, 29, 34, 38, 239, 231, 249, 236, 237, 250, 251, 265, 282, 314, 304, 291, 304, 296, 307, 298, 324, 308, 313, 314, 326, 327, 344, 359, 367, 366, 410, 403, 404, 405, 3, 13, 27, 34, 44, 227, 215, 214, 229, 247, 251, 252, 264, 272, 280, 277, 278, 277, 290, 291, 292, 303, 305, 315, 316, 328, 334, 339, 344, 351, 365, 380, 394, 395, 402, 403, 36, 21, 46, 52, 63, 226, 215, 210, 195, 259, 260, 256, 233, 269, 258, 262, 257, 267, 281, 292, 292, 315, 316, 328, 329, 340, 351, 345, 354, 353, 370, 385, 400, 402, 416, 411, 37, 52, 64, 68, 69, 79, 212, 211, 194, 188, 200, 205, 224, 230, 236, 255, 256, 257, 270, 278, 291, 292, 312, 321, 337, 340, 362, 359, 359, 369, 374, 394, 395, 397, 415, 428, 66, 63, 83, 98, 98, 92, 106, 121, 162, 170, 167, 183, 188, 238, 242, 247, 236, 243, 247, 260, 262, 287, 299, 313, 312, 331, 328, 346, 354, 355, 368, 393, 413, 415, 425, 447, 67, 78, 81, 98, 103, 138, 133, 143, 144, 159, 162, 172, 186, 195, 226, 220, 231, 240, 247, 252, 253, 263, 280, 297, 301, 302, 317, 319, 328, 338, 353, 369, 405, 398, 415, 403, 98, 90, 114, 111, 119, 139, 153, 154, 163, 160, 172, 175, 176, 181, 196, 215, 231, 236, 266, 259, 252, 261, 280, 296, 304, 311, 317, 318, 324, 356, 364, 379, 384, 389, 381, 402, 106, 119, 120, 122, 120, 138, 169, 173, 185, 192, 185, 186, 192, 193, 197, 202, 220, 231, 249, 241, 243, 261, 274, 293, 294, 315, 327, 316, 323, 334, 353, 362, 376, 378, 380, 381, 136, 135, 149, 143, 154, 147, 163, 193, 205, 208, 196, 191, 192, 196, 199, 205, 221, 224, 232, 240, 249, 258, 269, 280, 291, 293, 300, 301, 314, 315, 329, 376, 395, 401, 400, 392, 150, 160, 157, 158, 163, 173, 164, 231, 223, 231, 208, 206, 205, 210, 209, 217, 222, 262, 263, 261, 256, 262, 265, 268, 272, 291, 295, 296, 297, 307, 316, 325, 403, 408, 395, 387, 168, 167, 211, 202, 186, 185, 204, 235, 226, 227, 229, 211, 218, 213, 222, 225, 239, 249, 266, 275, 283, 271, 276, 287, 309, 326, 341, 297, 306, 307, 326, 327, 338, 398, 373, 379, 179, 222, 214, 228, 215, 214, 205, 215, 216, 228, 232, 246, 227, 238, 243, 250, 246, 265, 268, 285, 286, 287, 278, 291, 300, 325, 315, 310, 309, 324, 331, 335, 353, 365, 368, 378, 229, 224, 234, 244, 235, 233, 226, 221, 222, 230, 237, 238, 239, 244, 249, 250, 274, 275, 279, 287, 306, 314, 315, 316, 323, 330, 329, 323, 345, 334, 340, 341, 342, 354, 367, 377, 241, 247, 246, 251, 247, 235, 227, 231, 223, 241, 248, 247, 242, 249, 250, 287, 285, 289, 289, 295, 300, 308, 309, 325, 324, 359, 357, 368, 351, 353, 341, 345, 346, 356, 367, 369, 256, 253, 258, 253, 251, 237, 249, 254, 259, 254, 264, 251, 274, 279, 280, 287, 299, 297, 305, 307, 313, 319, 323, 341, 342, 348, 357, 374, 366, 358, 362, 361, 362, 366, 396, 388, 288, 283, 279, 275, 265, 268, 267, 261, 260, 273, 272, 288, 287, 294, 286, 293, 304, 308, 309, 338, 330, 335, 334, 335, 342, 344, 356, 367, 371, 377, 398, 417, 411, 410, 409, 410, 314, 294, 298, 286, 300, 281, 269, 268, 269, 272, 291, 306, 304, 295, 297, 301, 302, 318, 333, 347, 353, 336, 344, 343, 357, 354, 461, 384, 398, 395, 405, 416, 420, 421, 431, 421, 323, 324, 313, 310, 296, 289, 270, 290, 285, 291, 298, 317, 307, 320, 330, 329, 313, 331, 332, 338, 345, 354, 357, 360, 358, 435, 434, 428, 408, 411, 407, 417, 427, 444, 432];
Upper_Bound = [0, 12, 29, 34, 38, 239, 231, 249, 236, 237, 250, 251, 265, 282, 314, 304, 291, 304, 296, 307, 298, 324, 308, 313, 314, 326, 327, 344, 359, 367, 366, 410, 403, 404, 405, 3, 13, 27, 34, 44, 227, 215, 214, 229, 247, 251, 252, 264, 272, 280, 277, 278, 277, 290, 291, 292, 303, 305, 315, 316, 328, 334, 339, 344, 351, 365, 380, 394, 395, 402, 403, 36, 21, 46, 52, 63, 226, 215, 210, 195, 259, 260, 256, 233, 269, 258, 262, 257, 267, 281, 292, 292, 315, 316, 328, 329, 340, 351, 345, 354, 353, 370, 385, 400, 402, 416, 411, 37, 52, 64, 68, 69, 79, 212, 211, 194, 188, 200, 205, 224, 230, 236, 255, 256, 257, 270, 278, 291, 292, 312, 321, 337, 340, 362, 359, 359, 369, 374, 394, 395, 397, 415, 428, 66, 63, 83, 98, 98, 92, 106, 121, 162, 170, 167, 183, 188, 238, 242, 247, 236, 243, 247, 260, 262, 287, 299, 313, 312, 331, 328, 346, 354, 355, 368, 393, 413, 415, 425, 447, 67, 78, 81, 98, 103, 138, 133, 143, 144, 159, 162, 172, 186, 195, 226, 220, 231, 240, 247, 252, 253, 263, 280, 297, 301, 302, 317, 319, 328, 338, 353, 369, 405, 398, 415, 403, 98, 90, 114, 111, 119, 139, 153, 154, 163, 160, 172, 175, 176, 181, 196, 215, 231, 236, 266, 259, 252, 261, 280, 296, 304, 311, 317, 318, 324, 356, 364, 379, 384, 389, 381, 402, 106, 119, 120, 122, 120, 138, 169, 173, 185, 192, 185, 186, 192, 193, 197, 202, 220, 231, 249, 241, 243, 261, 274, 293, 294, 315, 327, 316, 323, 334, 353, 362, 376, 378, 380, 381, 136, 135, 149, 143, 154, 147, 163, 193, 205, 208, 196, 191, 192, 196, 199, 205, 221, 224, 232, 240, 249, 258, 269, 280, 291, 293, 300, 301, 314, 315, 329, 376, 395, 401, 400, 392, 150, 160, 157, 158, 163, 173, 164, 231, 223, 231, 208, 206, 205, 210, 209, 217, 222, 262, 263, 261, 256, 262, 265, 268, 272, 291, 295, 296, 297, 307, 316, 325, 403, 408, 395, 387, 168, 167, 211, 202, 186, 185, 204, 235, 226, 227, 229, 211, 218, 213, 222, 225, 239, 249, 266, 275, 283, 271, 276, 287, 309, 326, 341, 297, 306, 307, 326, 327, 338, 398, 373, 379, 179, 222, 214, 228, 215, 214, 205, 215, 216, 228, 232, 246, 227, 238, 243, 250, 246, 265, 268, 285, 286, 287, 278, 291, 300, 325, 315, 310, 309, 324, 331, 335, 353, 365, 368, 378, 229, 224, 234, 244, 235, 233, 226, 221, 222, 230, 237, 238, 239, 244, 249, 250, 274, 275, 279, 287, 306, 314, 315, 316, 323, 330, 329, 323, 345, 334, 340, 341, 342, 354, 367, 377, 241, 247, 246, 251, 247, 235, 227, 231, 223, 241, 248, 247, 242, 249, 250, 287, 285, 289, 289, 295, 300, 308, 309, 325, 324, 359, 357, 368, 351, 353, 341, 345, 346, 356, 367, 369, 256, 253, 258, 253, 251, 237, 249, 254, 259, 254, 264, 251, 274, 279, 280, 287, 299, 297, 305, 307, 313, 319, 323, 341, 342, 348, 357, 374, 366, 358, 362, 361, 362, 366, 396, 388, 288, 283, 279, 275, 265, 268, 267, 261, 260, 273, 272, 288, 287, 294, 286, 293, 304, 308, 309, 338, 330, 335, 334, 335, 342, 344, 356, 367, 371, 377, 398, 417, 411, 410, 409, 410, 314, 294, 298, 286, 300, 281, 269, 268, 269, 272, 291, 306, 304, 295, 297, 301, 302, 318, 333, 347, 353, 336, 344, 343, 357, 354, 461, 384, 398, 395, 405, 416, 420, 421, 431, 421, 323, 324, 313, 310, 296, 289, 270, 290, 285, 291, 298, 317, 307, 320, 330, 329, 313, 331, 332, 338, 345, 354, 357, 360, 358, 435, 434, 428, 408, 411, 407, 417, 427, 444, 432];
Start = 1;
End = 646;
Time = 432;
